60

 0   0   0  10  10  10  20  30  40  50  60  10  22  32  32  32  32  41  51  51  61  22  36  45  45  54  54  63  63  30  30  30  36  36  50  50  58  67  41  41  41  45  45  45  45  50  50  57  64  64  72  50  50  51  58  64  61  61  67  78  
 0   0   0  10  10  10  20  30  40  50  60  10  22  32  32  32  32  41  51  51  61  22  36  45  45  54  54  63  63  30  30  30  36  36  50  50  58  67  41  41  41  45  45  45  45  50  50  57  64  64  72  50  50  51  58  64  61  61  67  78  
 0   0   0  10  10  10  20  30  40  50  60  10  22  32  32  32  32  41  51  51  61  22  36  45  45  54  54  63  63  30  30  30  36  36  50  50  58  67  41  41  41  45  45  45  45  50  50  57  64  64  72  50  50  51  58  64  61  61  67  78  
10  10  10   0   0   0  10  20  30  40  50  14  14  22  22  22  22  32  41  41  51  20  28  36  36  45  45  54  54  32  32  32  32  32  42  42  50  58  40  40  40  41  41  41  41  45  45  50  57  57  64  51  51  50  54  58  60  60  63  72  
10  10  10   0   0   0  10  20  30  40  50  14  14  22  22  22  22  32  41  41  51  20  28  36  36  45  45  54  54  32  32  32  32  32  42  42  50  58  40  40  40  41  41  41  41  45  45  50  57  57  64  51  51  50  54  58  60  60  63  72  
10  10  10   0   0   0  10  20  30  40  50  14  14  22  22  22  22  32  41  41  51  20  28  36  36  45  45  54  54  32  32  32  32  32  42  42  50  58  40  40  40  41  41  41  41  45  45  50  57  57  64  51  51  50  54  58  60  60  63  72  
20  20  20  10  10  10   0  10  20  30  40  22  10  14  14  14  14  22  32  32  41  22  22  28  28  36  36  45  45  36  36  36  30  30  36  36  42  50  41  41  41  40  40  40  40  41  41  45  50  50  57  54  54  51  51  54  61  61  61  67  
30  30  30  20  20  20  10   0  10  20  30  32  14  10  10  10  10  14  22  22  32  28  20  22  22  28  28  36  36  42  42  42  32  32  32  32  36  42  45  45  45  41  41  41  41  40  40  41  45  45  50  58  58  54  50  51  63  63  60  63  
40  40  40  30  30  30  20  10   0  10  20  41  22  14  14  14  14  10  14  14  22  36  22  20  20  22  22  28  28  50  50  50  36  36  30  30  32  36  50  50  50  45  45  45  45  41  41  40  41  41  45  64  64  58  51  50  67  67  61  61  
50  50  50  40  40  40  30  20  10   0  10  51  32  22  22  22  22  14  10  10  14  45  28  22  22  20  20  22  22  58  58  58  42  42  32  32  30  32  57  57  57  50  50  50  50  45  45  41  40  40  41  71  71  64  54  51  72  72  63  60  
60  60  60  50  50  50  40  30  20  10   0  61  41  32  32  32  32  22  14  14  10  54  36  28  28  22  22  20  20  67  67  67  50  50  36  36  32  30  64  64  64  57  57  57  57  50  50  45  41  41  40  78  78  71  58  54  78  78  67  61  
10  10  10  14  14  14  22  32  41  51  61   0  20  30  30  30  30  40  50  50  60  14  32  41  41  51  51  61  61  20  20  20  28  28  45  45  54  63  32  32  32  36  36  36  36  42  42  50  58  58  67  40  40  41  50  57  51  51  58  71  
22  22  22  14  14  14  10  14  22  32  41  20   0  10  10  10  10  20  30  30  40  14  14  22  22  32  32  41  41  28  28  28  20  20  28  28  36  45  32  32  32  30  30  30  30  32  32  36  42  42  50  45  45  41  41  45  51  51  51  58  
32  32  32  22  22  22  14  10  14  22  32  30  10   0   0   0   0  10  20  20  30  22  10  14  14  22  22  32  32  36  36  36  22  22  22  22  28  36  36  36  36  32  32  32  32  30  30  32  36  36  42  50  50  45  40  41  54  54  50  54  
32  32  32  22  22  22  14  10  14  22  32  30  10   0   0   0   0  10  20  20  30  22  10  14  14  22  22  32  32  36  36  36  22  22  22  22  28  36  36  36  36  32  32  32  32  30  30  32  36  36  42  50  50  45  40  41  54  54  50  54  
32  32  32  22  22  22  14  10  14  22  32  30  10   0   0   0   0  10  20  20  30  22  10  14  14  22  22  32  32  36  36  36  22  22  22  22  28  36  36  36  36  32  32  32  32  30  30  32  36  36  42  50  50  45  40  41  54  54  50  54  
32  32  32  22  22  22  14  10  14  22  32  30  10   0   0   0   0  10  20  20  30  22  10  14  14  22  22  32  32  36  36  36  22  22  22  22  28  36  36  36  36  32  32  32  32  30  30  32  36  36  42  50  50  45  40  41  54  54  50  54  
41  41  41  32  32  32  22  14  10  14  22  40  20  10  10  10  10   0  10  10  20  32  14  10  10  14  14  22  22  45  45  45  28  28  20  20  22  28  42  42  42  36  36  36  36  32  32  30  32  32  36  57  57  50  41  40  58  58  51  51  
51  51  51  41  41  41  32  22  14  10  14  50  30  20  20  20  20  10   0   0  10  41  22  14  14  10  10  14  14  54  54  54  36  36  22  22  20  22  50  50  50  42  42  42  42  36  36  32  30  30  32  64  64  57  45  41  64  64  54  50  
51  51  51  41  41  41  32  22  14  10  14  50  30  20  20  20  20  10   0   0  10  41  22  14  14  10  10  14  14  54  54  54  36  36  22  22  20  22  50  50  50  42  42  42  42  36  36  32  30  30  32  64  64  57  45  41  64  64  54  50  
61  61  61  51  51  51  41  32  22  14  10  60  40  30  30  30  30  20  10  10   0  51  32  22  22  14  14  10  10  63  63  63  45  45  28  28  22  20  58  58  58  50  50  50  50  42  42  36  32  32  30  72  72  64  50  45  71  71  58  51  
22  22  22  20  20  20  22  28  36  45  54  14  14  22  22  22  22  32  41  41  51   0  20  30  30  40  40  50  50  14  14  14  14  14  32  32  41  51  20  20  20  22  22  22  22  28  28  36  45  45  54  32  32  30  36  42  40  40  45  57  
36  36  36  28  28  28  22  20  22  28  36  32  14  10  10  10  10  14  22  22  32  20   0  10  10  20  20  30  30  32  32  32  14  14  14  14  22  32  28  28  28  22  22  22  22  20  20  22  28  28  36  42  42  36  30  32  45  45  40  45  
45  45  45  36  36  36  28  22  20  22  28  41  22  14  14  14  14  10  14  14  22  30  10   0   0  10  10  20  20  41  41  41  22  22  10  10  14  22  36  36  36  28  28  28  28  22  22  20  22  22  28  50  50  42  32  30  50  50  41  41  
45  45  45  36  36  36  28  22  20  22  28  41  22  14  14  14  14  10  14  14  22  30  10   0   0  10  10  20  20  41  41  41  22  22  10  10  14  22  36  36  36  28  28  28  28  22  22  20  22  22  28  50  50  42  32  30  50  50  41  41  
54  54  54  45  45  45  36  28  22  20  22  51  32  22  22  22  22  14  10  10  14  40  20  10  10   0   0  10  10  51  51  51  32  32  14  14  10  14  45  45  45  36  36  36  36  28  28  22  20  20  22  58  58  50  36  32  57  57  45  40  
54  54  54  45  45  45  36  28  22  20  22  51  32  22  22  22  22  14  10  10  14  40  20  10  10   0   0  10  10  51  51  51  32  32  14  14  10  14  45  45  45  36  36  36  36  28  28  22  20  20  22  58  58  50  36  32  57  57  45  40  
63  63  63  54  54  54  45  36  28  22  20  61  41  32  32  32  32  22  14  14  10  50  30  20  20  10  10   0   0  61  61  61  41  41  22  22  14  10  54  54  54  45  45  45  45  36  36  28  22  22  20  67  67  58  42  36  64  64  50  41  
63  63  63  54  54  54  45  36  28  22  20  61  41  32  32  32  32  22  14  14  10  50  30  20  20  10  10   0   0  61  61  61  41  41  22  22  14  10  54  54  54  45  45  45  45  36  36  28  22  22  20  67  67  58  42  36  64  64  50  41  
30  30  30  32  32  32  36  42  50  58  67  20  28  36  36  36  36  45  54  54  63  14  32  41  41  51  51  61  61   0   0   0  20  20  40  40  50  60  14  14  14  22  22  22  22  32  32  41  51  51  61  20  20  22  36  45  32  32  42  58  
30  30  30  32  32  32  36  42  50  58  67  20  28  36  36  36  36  45  54  54  63  14  32  41  41  51  51  61  61   0   0   0  20  20  40  40  50  60  14  14  14  22  22  22  22  32  32  41  51  51  61  20  20  22  36  45  32  32  42  58  
30  30  30  32  32  32  36  42  50  58  67  20  28  36  36  36  36  45  54  54  63  14  32  41  41  51  51  61  61   0   0   0  20  20  40  40  50  60  14  14  14  22  22  22  22  32  32  41  51  51  61  20  20  22  36  45  32  32  42  58  
36  36  36  32  32  32  30  32  36  42  50  28  20  22  22  22  22  28  36  36  45  14  14  22  22  32  32  41  41  20  20  20   0   0  20  20  30  40  14  14  14  10  10  10  10  14  14  22  32  32  41  28  28  22  22  28  32  32  32  42  
36  36  36  32  32  32  30  32  36  42  50  28  20  22  22  22  22  28  36  36  45  14  14  22  22  32  32  41  41  20  20  20   0   0  20  20  30  40  14  14  14  10  10  10  10  14  14  22  32  32  41  28  28  22  22  28  32  32  32  42  
50  50  50  42  42  42  36  32  30  32  36  45  28  22  22  22  22  20  22  22  28  32  14  10  10  14  14  22  22  40  40  40  20  20   0   0  10  20  32  32  32  22  22  22  22  14  14  10  14  14  22  45  45  36  22  20  42  42  32  32  
50  50  50  42  42  42  36  32  30  32  36  45  28  22  22  22  22  20  22  22  28  32  14  10  10  14  14  22  22  40  40  40  20  20   0   0  10  20  32  32  32  22  22  22  22  14  14  10  14  14  22  45  45  36  22  20  42  42  32  32  
58  58  58  50  50  50  42  36  32  30  32  54  36  28  28  28  28  22  20  20  22  41  22  14  14  10  10  14  14  50  50  50  30  30  10  10   0  10  41  41  41  32  32  32  32  22  22  14  10  10  14  54  54  45  28  22  50  50  36  30  
67  67  67  58  58  58  50  42  36  32  30  63  45  36  36  36  36  28  22  22  20  51  32  22  22  14  14  10  10  60  60  60  40  40  20  20  10   0  51  51  51  41  41  41  41  32  32  22  14  14  10  63  63  54  36  28  58  58  42  32  
41  41  41  40  40  40  41  45  50  57  64  32  32  36  36  36  36  42  50  50  58  20  28  36  36  45  45  54  54  14  14  14  14  14  32  32  41  51   0   0   0  10  10  10  10  20  20  30  40  40  50  14  14  10  22  32  20  20  28  45  
41  41  41  40  40  40  41  45  50  57  64  32  32  36  36  36  36  42  50  50  58  20  28  36  36  45  45  54  54  14  14  14  14  14  32  32  41  51   0   0   0  10  10  10  10  20  20  30  40  40  50  14  14  10  22  32  20  20  28  45  
41  41  41  40  40  40  41  45  50  57  64  32  32  36  36  36  36  42  50  50  58  20  28  36  36  45  45  54  54  14  14  14  14  14  32  32  41  51   0   0   0  10  10  10  10  20  20  30  40  40  50  14  14  10  22  32  20  20  28  45  
45  45  45  41  41  41  40  41  45  50  57  36  30  32  32  32  32  36  42  42  50  22  22  28  28  36  36  45  45  22  22  22  10  10  22  22  32  41  10  10  10   0   0   0   0  10  10  20  30  30  40  22  22  14  14  22  22  22  22  36  
45  45  45  41  41  41  40  41  45  50  57  36  30  32  32  32  32  36  42  42  50  22  22  28  28  36  36  45  45  22  22  22  10  10  22  22  32  41  10  10  10   0   0   0   0  10  10  20  30  30  40  22  22  14  14  22  22  22  22  36  
45  45  45  41  41  41  40  41  45  50  57  36  30  32  32  32  32  36  42  42  50  22  22  28  28  36  36  45  45  22  22  22  10  10  22  22  32  41  10  10  10   0   0   0   0  10  10  20  30  30  40  22  22  14  14  22  22  22  22  36  
45  45  45  41  41  41  40  41  45  50  57  36  30  32  32  32  32  36  42  42  50  22  22  28  28  36  36  45  45  22  22  22  10  10  22  22  32  41  10  10  10   0   0   0   0  10  10  20  30  30  40  22  22  14  14  22  22  22  22  36  
50  50  50  45  45  45  41  40  41  45  50  42  32  30  30  30  30  32  36  36  42  28  20  22  22  28  28  36  36  32  32  32  14  14  14  14  22  32  20  20  20  10  10  10  10   0   0  10  20  20  30  32  32  22  10  14  28  28  20  28  
50  50  50  45  45  45  41  40  41  45  50  42  32  30  30  30  30  32  36  36  42  28  20  22  22  28  28  36  36  32  32  32  14  14  14  14  22  32  20  20  20  10  10  10  10   0   0  10  20  20  30  32  32  22  10  14  28  28  20  28  
57  57  57  50  50  50  45  41  40  41  45  50  36  32  32  32  32  30  32  32  36  36  22  20  20  22  22  28  28  41  41  41  22  22  10  10  14  22  30  30  30  20  20  20  20  10  10   0  10  10  20  41  41  32  14  10  36  36  22  22  
64  64  64  57  57  57  50  45  41  40  41  58  42  36  36  36  36  32  30  30  32  45  28  22  22  20  20  22  22  51  51  51  32  32  14  14  10  14  40  40  40  30  30  30  30  20  20  10   0   0  10  51  51  41  22  14  45  45  28  20  
64  64  64  57  57  57  50  45  41  40  41  58  42  36  36  36  36  32  30  30  32  45  28  22  22  20  20  22  22  51  51  51  32  32  14  14  10  14  40  40  40  30  30  30  30  20  20  10   0   0  10  51  51  41  22  14  45  45  28  20  
72  72  72  64  64  64  57  50  45  41  40  67  50  42  42  42  42  36  32  32  30  54  36  28  28  22  22  20  20  61  61  61  41  41  22  22  14  10  50  50  50  40  40  40  40  30  30  20  10  10   0  61  61  51  32  22  54  54  36  22  
50  50  50  51  51  51  54  58  64  71  78  40  45  50  50  50  50  57  64  64  72  32  42  50  50  58  58  67  67  20  20  20  28  28  45  45  54  63  14  14  14  22  22  22  22  32  32  41  51  51  61   0   0  10  30  40  14  14  32  51  
50  50  50  51  51  51  54  58  64  71  78  40  45  50  50  50  50  57  64  64  72  32  42  50  50  58  58  67  67  20  20  20  28  28  45  45  54  63  14  14  14  22  22  22  22  32  32  41  51  51  61   0   0  10  30  40  14  14  32  51  
51  51  51  50  50  50  51  54  58  64  71  41  41  45  45  45  45  50  57  57  64  30  36  42  42  50  50  58  58  22  22  22  22  22  36  36  45  54  10  10  10  14  14  14  14  22  22  32  41  41  51  10  10   0  20  30  10  10  22  41  
58  58  58  54  54  54  51  50  51  54  58  50  41  40  40  40  40  41  45  45  50  36  30  32  32  36  36  42  42  36  36  36  22  22  22  22  28  36  22  22  22  14  14  14  14  10  10  14  22  22  32  30  30  20   0  10  22  22  10  22  
64  64  64  58  58  58  54  51  50  51  54  57  45  41  41  41  41  40  41  41  45  42  32  30  30  32  32  36  36  45  45  45  28  28  20  20  22  28  32  32  32  22  22  22  22  14  14  10  14  14  22  40  40  30  10   0  32  32  14  14  
61  61  61  60  60  60  61  63  67  72  78  51  51  54  54  54  54  58  64  64  71  40  45  50  50  57  57  64  64  32  32  32  32  32  42  42  50  58  20  20  20  22  22  22  22  28  28  36  45  45  54  14  14  10  22  32   0   0  20  40  
61  61  61  60  60  60  61  63  67  72  78  51  51  54  54  54  54  58  64  64  71  40  45  50  50  57  57  64  64  32  32  32  32  32  42  42  50  58  20  20  20  22  22  22  22  28  28  36  45  45  54  14  14  10  22  32   0   0  20  40  
67  67  67  63  63  63  61  60  61  63  67  58  51  50  50  50  50  51  54  54  58  45  40  41  41  45  45  50  50  42  42  42  32  32  32  32  36  42  28  28  28  22  22  22  22  20  20  22  28  28  36  32  32  22  10  14  20  20   0  20  
78  78  78  72  72  72  67  63  61  60  61  71  58  54  54  54  54  51  50  50  51  57  45  41  41  40  40  41  41  58  58  58  42  42  32  32  30  32  45  45  45  36  36  36  36  28  28  22  20  20  22  51  51  41  22  14  40  40  20   0  

 0  17  12  37  22  22  18  22  22  32  14  35  25   5  27  22  22  12  27  22  33  49  22  23  22  36  28  12  17  21  29  40  17  26  32  32  19  22  32  18  18  22  17   9  18  31  32  27  27  17  18  22  22  37   5  37  22  18   8  22  
 0   0  21  15  28  22  23  23  22  21  12  27  22  27  23  24  21  28  17  19  24  23  22  27  20  22  17  15  27  19  23  27  29  22  19  27  24  22  22  22  17  32  21  25  21  15  22  29  25  30  18  25  24  17  25  27  22  23  17  20  
 0   0   0  32  22  22  21  23  23  25  18  32  19  12  21  23  32  31  22  17  21  18  37  23  22  22  22  12  22  22  23  22  20  25  32  35  22  22  30  19  26  12  12  18  21  27  24  22  22  22  20  21  17  40  15  33  23  23  12  23  
 0   0   0   0  22  22  23  21  32  12  25  16  29  34  34  19  24  35   0  22  14  12  26  28  13  11   8  27  37  26  22  27  16  21  15  17  31  15   5  26  18  29  32  35  22   9  11  29  22  34  21  19  28  12  46  17  25  19  33  22  
 0   0   0   0   0   5  23  20  22  27  16  37  22  12  25  18  27  22  22  25  22  26  16  22  22  20  14  17  24  25  22  22  16  31  19  13  24  33  22  22  18  19  22  19  28  14  28  22  25  17  25  22  28  31  25  13  33  22  22  34  
 0   0   0   0   0   0  22  20  22  17  20  37  29  15  15  25  24  22  22  22  22  26  16  22  29  27   4  17  24  22  22  22  22  31   9   9  24  33  22  22  18  22  22  15  28  14  21  22  28  20  22  29  31  31  35  13  33  22  22  24  
 0   0   0   0   0   0   0  22  20  27  26  26  22  20  22  25  24  19  22  22  23  22  19  19  20  26  22  19  22  22  26  26  19  26  19  28  24  22  23  15  23  24  26  18  22  23  22  24  23  22  20  19  23  26  25  23  20  15  18  25  
 0   0   0   0   0   0   0   0  16  19  22  28  22  30  23  29  24  21  22  22  22  19  29  23  28  13  21  20  24  23  21  28  22  21  22  21  24  18  22  23  25  22  29  16  23  20  15  22  22  14  22  15  24  22  22  22  24  22  23  27  
 0   0   0   0   0   0   0   0   0  19  23  28  15  28  15  27  22  19  29  22  23  22  25  21  35  16  25  25  22  19  22  28  29  22  19  18  15  23  28  19  21  22  27  14  22  18  16  22  22  19  23  17  18  22  18  21  18  26  22  28  
 0   0   0   0   0   0   0   0   0   0  44  28  32  27  12  32  25  32  14  19  12  16  42  21  37  16   5  23  30  22  22  26  29  18  17   6  18  14  25  27  18  13  31  30  22  13   3  20  22  25  23  26  20  19  34  22  23  24  21  21  
 0   0   0   0   0   0   0   0   0   0   0  27   9  22  34  18  14  15  27  22  33  29  12  32  13  21  29  12  17  19  15  20  22  30  29  36  27  31  20  23  21  39  20  18  25  25  36  29  21  20  22  12  17  30   5  19  32  26  26  35  
 0   0   0   0   0   0   0   0   0   0   0   0  22  39  22  26  12  17  22  22  23  16  12  26  16  24  35  45  22  21  18  13  22   9  18  13  22  19  12  26  29  32  26  28  15  28  22  22  13  28  26  23  22   5  26  21  13  26  41   7  
 0   0   0   0   0   0   0   0   0   0   0   0   0  25  22  15  22  25  29  22  22  19  22  22  22  15  29  19  22  22  19  19  26  25  29  28  18  29  26  19  25  22  22  29  25  15  26  22  22  22  22  15   8  25   8  22  22  29  22  29  
 0   0   0   0   0   0   0   0   0   0   0   0   0   0  25  12  31  22  22  25  20  27  26  18  18  34  13   6  20  22  29  23  19  35  35  31  15  35  32  18  20   7   3  22  19  26  28  20  26  30  18  30  18  45  12  23  29  18   8  25  
 0   0   0   0   0   0   0   0   0   0   0   0   0   0   0  29  19  23  34  19  22  23  22  17  36  29  15  22  17  22  23  17  33  22  12   8  15  29  29  22  27  20  24  18  21  20  15  17  22  17  21  29  22  22  25  17  22  30  22  16  
 0   0   0   0   0   0   0   0   0   0   0   0   0   0   0   0  18  22  21  22  21  30  11  22  11  22  34  32  20  23  22  16  23  21  24  20  18  26  21  24  14  20  15  37  27  20  40  20  28  30  23  23  11  22  21  21  19  23  23  23  
 0   0   0   0   0   0   0   0   0   0   0   0   0   0   0   0   0  12  32  19  30  34   2  22  24  34  36  36  10  22  22  22  25  22   9  10  18  20  12  22  20  43  35  15  22  36  32  20  22  14  22  24  18  12  25  12  20  22  32  22  
 0   0   0   0   0   0   0   0   0   0   0   0   0   0   0   0   0   0  32  27  32  36   4  22  22  32  35  30  12  19  21  22  24  19  19  22  22  22  25  22  19  32  23  12  23  30  30  22  22  15  23  17  30  19  12  22  19  18  27  21  
 0   0   0   0   0   0   0   0   0   0   0   0   0   0   0   0   0   0   0  22  10  10  30  27  15  12  12  22  37  24  22  29  13  24  21  31  29  15  15  23  15  17  22  31  21  14  12  27  22  37  23  22  31  22  41  27  22  15  22  22  
 0   0   0   0   0   0   0   0   0   0   0   0   0   0   0   0   0   0   0   0  22  17  27  22  22  22  22  22  22  22  22  22  25  22  19  22  22  22  22  22  22  25  25  25  22  27  27  22  22  22  22  22  17  27  25  22  22  22  22  22  
 0   0   0   0   0   0   0   0   0   0   0   0   0   0   0   0   0   0   0   0   0  10  30  23  24  12  14  23  32  25  22  28  20  24  20  23  20  22  23  22  20  10  23  29  23  14  12  20  21  32  21  18  22  21  34  23  23  22  22  22  
 0   0   0   0   0   0   0   0   0   0   0   0   0   0   0   0   0   0   0   0   0   0  41  22  22  10  10  11  34  24  18  16  24  24  26  33  27  24  22  22  28  17  18  33  20  17  11  22  16  30  23  22  21  27  25  22  24  21  22  21  
 0   0   0   0   0   0   0   0   0   0   0   0   0   0   0   0   0   0   0   0   0   0   0  21  16  39  34  41  12  20  22  18  19  25   1  12  22  28  12  18  13  42  26  13  28  24  40  22  28  21  23  29  32   7  33  12  19  18  31  16  
 0   0   0   0   0   0   0   0   0   0   0   0   0   0   0   0   0   0   0   0   0   0   0   0  22  27  17  18  17  21  26  21  21  27  22  27  22  22  21  17  25  17  21  23  22  27  23  17  26  17  20  24  22  26  22  16  21  17  17  22  
 0   0   0   0   0   0   0   0   0   0   0   0   0   0   0   0   0   0   0   0   0   0   0   0   0  21  27  20  22  22  22  16  15  22  29  38  31  21  15  22  22  24  16  35  22  27  35  24  22  28  22  19  24  22  22  22  22  15  22  23  
 0   0   0   0   0   0   0   0   0   0   0   0   0   0   0   0   0   0   0   0   0   0   0   0   0   0  22  24  34  23  18  24  23  17  29  24  24  18  22  27  25  12  28  33  22  10  12  22  18  24  25   8  17  18  25  22  24  27  27  35  
 0   0   0   0   0   0   0   0   0   0   0   0   0   0   0   0   0   0   0   0   0   0   0   0   0   0   0   2  34  21  26  26  24  36  18  22  26  33  22  20  23  14  19  28  22   5   6  24  29  30  16  28  30  35  36  13  36  20  17  21  
 0   0   0   0   0   0   0   0   0   0   0   0   0   0   0   0   0   0   0   0   0   0   0   0   0   0   0   0  24  26  23  22  22  35  41  45  29  33  32  21  29  14  12  28  20  21  16  24  19  17  18  25  23  39   0  23  36  21   3  31  
 0   0   0   0   0   0   0   0   0   0   0   0   0   0   0   0   0   0   0   0   0   0   0   0   0   0   0   0   0  22  22  17  22  22  22  22  20  20  22  22  25  27  22  12  22  39  32  17  22   9  22  22  20  22  12  17  20  22  22  22  
 0   0   0   0   0   0   0   0   0   0   0   0   0   0   0   0   0   0   0   0   0   0   0   0   0   0   0   0   0   0  22  21  26  21  21  26  22  30  22  18  24  22  19  21  21  25  23  30  26  28  20  23  23  23  23  22  19  18  21  19  
 0   0   0   0   0   0   0   0   0   0   0   0   0   0   0   0   0   0   0   0   0   0   0   0   0   0   0   0   0   0   0  15  21  18  22  21  25  22  22  26  22  22  23  25  26  22  22  22  18  22  27  22  22  18  19  22  22  25  26  21  
 0   0   0   0   0   0   0   0   0   0   0   0   0   0   0   0   0   0   0   0   0   0   0   0   0   0   0   0   0   0   0   0  29  16  24  20  25  28  22  26  28  22  11  33  26  32  28  17  17  23  26  33  20  17  17  17  22  26  26  16  
 0   0   0   0   0   0   0   0   0   0   0   0   0   0   0   0   0   0   0   0   0   0   0   0   0   0   0   0   0   0   0   0   0  28  23  32  29  15  12  18  22  14  28  14  23  24  20  22  19  19  27  23  31  25  31  22  22  13  21  24  
 0   0   0   0   0   0   0   0   0   0   0   0   0   0   0   0   0   0   0   0   0   0   0   0   0   0   0   0   0   0   0   0   0   0  24  12  22  13  25  30  22  22  22  27  22  22  24  22  18  22  25  21  20   6  17  31  13  27  27  13  
 0   0   0   0   0   0   0   0   0   0   0   0   0   0   0   0   0   0   0   0   0   0   0   0   0   0   0   0   0   0   0   0   0   0   0   4  22  22  12  18  14  35  35  12  29  19  21  22  28  25  21  29  34  12  53  12  19  19  32  15  
 0   0   0   0   0   0   0   0   0   0   0   0   0   0   0   0   0   0   0   0   0   0   0   0   0   0   0   0   0   0   0   0   0   0   0   0  10  29  22  33  17  30  35  20  24   8  23  20  22  16  28  30  15   6  33  12  25  37  37  18  
 0   0   0   0   0   0   0   0   0   0   0   0   0   0   0   0   0   0   0   0   0   0   0   0   0   0   0   0   0   0   0   0   0   0   0   0   0  27  29  22  20  20  22  19  19  19  22  20  22  24  22  24  11  22  18  22  20  29  22  22  
 0   0   0   0   0   0   0   0   0   0   0   0   0   0   0   0   0   0   0   0   0   0   0   0   0   0   0   0   0   0   0   0   0   0   0   0   0   0  15  22  20  22  28  16  22  31  16  14  22  18  22  16  27  13  29  31  11  15  22  19  
 0   0   0   0   0   0   0   0   0   0   0   0   0   0   0   0   0   0   0   0   0   0   0   0   0   0   0   0   0   0   0   0   0   0   0   0   0   0   0  19  24  32  31  20  22  29  19  22  22  22  23  23  29  15  42  11  21  15  32  22  
 0   0   0   0   0   0   0   0   0   0   0   0   0   0   0   0   0   0   0   0   0   0   0   0   0   0   0   0   0   0   0   0   0   0   0   0   0   0   0   0  24  22  22  15  23  25  20  22  26  25  18  23  25  29  28  22  19  14  17  22  
 0   0   0   0   0   0   0   0   0   0   0   0   0   0   0   0   0   0   0   0   0   0   0   0   0   0   0   0   0   0   0   0   0   0   0   0   0   0   0   0   0  27  21  24  29  13  32  27  27  29  24  24  22  18  27  26  19  21  21  22  
 0   0   0   0   0   0   0   0   0   0   0   0   0   0   0   0   0   0   0   0   0   0   0   0   0   0   0   0   0   0   0   0   0   0   0   0   0   0   0   0   0   0  14  29  22  14  12  15  22  27  22  24  20  32  19  27  22  22  12  22  
 0   0   0   0   0   0   0   0   0   0   0   0   0   0   0   0   0   0   0   0   0   0   0   0   0   0   0   0   0   0   0   0   0   0   0   0   0   0   0   0   0   0   0  26  21  27  28  22  25  31  19  29  22  32   9  31  21  23  12  14  
 0   0   0   0   0   0   0   0   0   0   0   0   0   0   0   0   0   0   0   0   0   0   0   0   0   0   0   0   0   0   0   0   0   0   0   0   0   0   0   0   0   0   0   0  20  35  16  22  22   9  20  22  34  25  27  23  20  19  22  21  
 0   0   0   0   0   0   0   0   0   0   0   0   0   0   0   0   0   0   0   0   0   0   0   0   0   0   0   0   0   0   0   0   0   0   0   0   0   0   0   0   0   0   0   0   0  28  16  22  17  22  22  22  22  23  19  22  22  23  22  23  
 0   0   0   0   0   0   0   0   0   0   0   0   0   0   0   0   0   0   0   0   0   0   0   0   0   0   0   0   0   0   0   0   0   0   0   0   0   0   0   0   0   0   0   0   0   0  13  29  28  32  22  20  21  17  28  27  27  32  22  22  
 0   0   0   0   0   0   0   0   0   0   0   0   0   0   0   0   0   0   0   0   0   0   0   0   0   0   0   0   0   0   0   0   0   0   0   0   0   0   0   0   0   0   0   0   0   0   0  22  16  26  21  22  34  20  36  22  22  23  23  21  
 0   0   0   0   0   0   0   0   0   0   0   0   0   0   0   0   0   0   0   0   0   0   0   0   0   0   0   0   0   0   0   0   0   0   0   0   0   0   0   0   0   0   0   0   0   0   0   0  22  17  22  24  20  22  22  17  22  22  22  22  
 0   0   0   0   0   0   0   0   0   0   0   0   0   0   0   0   0   0   0   0   0   0   0   0   0   0   0   0   0   0   0   0   0   0   0   0   0   0   0   0   0   0   0   0   0   0   0   0   0  19  29  22  22  17  16  22  22  26  26  25  
 0   0   0   0   0   0   0   0   0   0   0   0   0   0   0   0   0   0   0   0   0   0   0   0   0   0   0   0   0   0   0   0   0   0   0   0   0   0   0   0   0   0   0   0   0   0   0   0   0   0  25  16  21  22   9  17  27  25  22  31  
 0   0   0   0   0   0   0   0   0   0   0   0   0   0   0   0   0   0   0   0   0   0   0   0   0   0   0   0   0   0   0   0   0   0   0   0   0   0   0   0   0   0   0   0   0   0   0   0   0   0   0  20  22  26  22  23  23  20  19  20  
 0   0   0   0   0   0   0   0   0   0   0   0   0   0   0   0   0   0   0   0   0   0   0   0   0   0   0   0   0   0   0   0   0   0   0   0   0   0   0   0   0   0   0   0   0   0   0   0   0   0   0   0  17  27  15  23  23  23  28  35  
 0   0   0   0   0   0   0   0   0   0   0   0   0   0   0   0   0   0   0   0   0   0   0   0   0   0   0   0   0   0   0   0   0   0   0   0   0   0   0   0   0   0   0   0   0   0   0   0   0   0   0   0   0  27   3  22  23  32  22  29  
 0   0   0   0   0   0   0   0   0   0   0   0   0   0   0   0   0   0   0   0   0   0   0   0   0   0   0   0   0   0   0   0   0   0   0   0   0   0   0   0   0   0   0   0   0   0   0   0   0   0   0   0   0   0  29  21  13  26  31  13  
 0   0   0   0   0   0   0   0   0   0   0   0   0   0   0   0   0   0   0   0   0   0   0   0   0   0   0   0   0   0   0   0   0   0   0   0   0   0   0   0   0   0   0   0   0   0   0   0   0   0   0   0   0   0   0  32  25  32  12  29  
 0   0   0   0   0   0   0   0   0   0   0   0   0   0   0   0   0   0   0   0   0   0   0   0   0   0   0   0   0   0   0   0   0   0   0   0   0   0   0   0   0   0   0   0   0   0   0   0   0   0   0   0   0   0   0   0  30  22  32  31  
 0   0   0   0   0   0   0   0   0   0   0   0   0   0   0   0   0   0   0   0   0   0   0   0   0   0   0   0   0   0   0   0   0   0   0   0   0   0   0   0   0   0   0   0   0   0   0   0   0   0   0   0   0   0   0   0   0  19  22  13  
 0   0   0   0   0   0   0   0   0   0   0   0   0   0   0   0   0   0   0   0   0   0   0   0   0   0   0   0   0   0   0   0   0   0   0   0   0   0   0   0   0   0   0   0   0   0   0   0   0   0   0   0   0   0   0   0   0   0  17  21  
 0   0   0   0   0   0   0   0   0   0   0   0   0   0   0   0   0   0   0   0   0   0   0   0   0   0   0   0   0   0   0   0   0   0   0   0   0   0   0   0   0   0   0   0   0   0   0   0   0   0   0   0   0   0   0   0   0   0   0  22  
 0   0   0   0   0   0   0   0   0   0   0   0   0   0   0   0   0   0   0   0   0   0   0   0   0   0   0   0   0   0   0   0   0   0   0   0   0   0   0   0   0   0   0   0   0   0   0   0   0   0   0   0   0   0   0   0   0   0   0   0  
